db/data/8632573162410009620948213227025502.z3.out
-------------------
2500.173980271
